Route #1: 9 62 61 30 57 3
Route #2: 60 6 34 64 40 44 53
Route #3: 39 42 36 4 14 50 46
Route #4: 11 35 49 1 19 20
Route #5: 7 8 23 37 65 32
Route #6: 51 59 24 29 38 17
Route #7: 26 2 41 16 43 27 10 66
Route #8: 47 33 18 31 45 52 22
Route #9: 12 58 13 28 5
Route #10: 15 56 55 54 21 25 48 63
Cost 1094